NAME : SCA3-4.6904969.tour
COMMENT : Cost = 0_6904969
COMMENT : Found by LKH [Keld Helsgaun] Sat Sep  9 21:11:00 2017
TYPE : TOUR
DIMENSION : 54
TOUR_SECTION
1
24
38
35
16
33
18
4
15
51
39
36
13
20
10
26
53
22
47
43
41
19
49
17
32
14
29
40
9
46
21
31
11
54
2
27
45
34
52
12
25
7
30
23
37
48
6
50
44
8
5
28
3
42
-1
EOF
